NAME : single
TYPE : ATSP
DIMENSION : 11
EDGE_WEIGHT_TYPE : EXPLICIT
EDGE_WEIGHT_FORMAT : FULL_MATRIX
EDGE_WEIGHT_SECTION
0 50450 50459 856 626 572 310 507 370 283 130 
0 0 171 204 50000 50000 50000 50000 50000 735 804 
0 171 0 214 50000 50000 50000 50000 50000 50000 50000 
0 204 214 0 383 359 50000 50000 50000 471 495 
0 50000 50000 383 0 141 338 179 270 279 283 
0 50000 50000 359 141 0 261 114 227 228 213 
0 50000 50000 50000 338 261 0 185 241 256 177 
0 50000 50000 50000 179 114 185 0 263 278 207 
0 50000 50000 50000 270 227 241 263 0 251 181 
0 735 50000 471 279 228 256 278 251 0 166 
0 804 50000 495 283 213 177 207 181 166 0 
EOF